Route #1: 1 24 15 44 7 27 14 46 39 1
Route #2: 1 10 11 8 23 40 4 6 37 12 34 1
Route #3: 1 20 30 32 41 35 28 2 9 29 1
Route #4: 1 5 31 3 38 33 1
Route #5: 1 18 22 42 21 17 25 43 1
Route #6: 1 13 36 19 45 26 1
Route #7: 1 16 1
cost 1148.2284133338321